SCIP version 5.0.0 [precision: 8 byte] [memory: block] [mode: optimized] [LP solver: NONE] [GitHash: 3bbd232]
Copyright (C) 2002-2017 Konrad-Zuse-Zentrum fuer Informationstechnik Berlin (ZIB)

External codes: 
  Readline EditLine w  GNU library for command line editing (gnu.org/s/readline)
  CppAD 20160000.1     Algorithmic Differentiation of C++ algorithms developed by B. Bell (www.coin-or.org/CppAD)
  ZLIB 1.2.5           General purpose compression library by J. Gailly and M. Adler (zlib.net)
  GMP 6.1.2            GNU Multiple Precision Arithmetic Library developed by T. Granlund (gmplib.org)

user parameter file <scip.set> not found - using default parameters

read problem <../../Split_data/output/statG/5/1_sample_statG.logreg>
============

File name	:	../../Split_data/output/statG/5/1_sample_statG.logreg
Problem name 	:	1_sample_statG
Number of data	:	800
Number of var	:	61
The given data has linear dependence
13 sets of column vector are linearly dependent:

[dim=1] time: 0.037937
[dim=2] time: 0.07997
[dim=3] time: 0.120068
[dim=4] time: 0.158581
[dim=5] time: 0.19734
[dim=6] time: 0.242096
[dim=7] time: 0.292371
[dim=8] time: 0.347068
[dim=9] time: 0.387131
[dim=10] time: 0.426624
[dim=11] time: 0.465168
[dim=12] time: 0.502527
[dim=13] time: 0.53955
[dim=14] time: 0.576583
[dim=15] time: 0.613524
[dim=16] time: 0.651009
[dim=17] time: 0.701651
[dim=18] time: 0.738265
[dim=19] time: 0.776033
[dim=20] time: 0.81651
[dim=21] time: 0.85283
[dim=22] time: 0.888794
[dim=23] time: 0.926929
[dim=24] Time of forward = 0.962823sec.
AIC: 766.02
k: 23

[dim=48] time: 0.131463
[dim=47] time: 0.203188
[dim=46] time: 0.271637
[dim=45] time: 0.341015
[dim=44] time: 0.404953
[dim=43] time: 0.476813
[dim=42] time: 0.542938
[dim=41] time: 0.606453
[dim=40] time: 0.668997
[dim=39] time: 0.726302
[dim=38] time: 0.783969
[dim=37] time: 0.843137
[dim=36] time: 0.887314
[dim=35] time: 0.935996
[dim=34] time: 0.991897
[dim=33] time: 1.03633
[dim=32] time: 1.0719
[dim=31] time: 1.1076
[dim=30] time: 1.14751
[dim=29] time: 1.18348
[dim=28] time: 1.2327
[dim=27] Time of backward = 1.26864sec.
AIC: 776.406
k: 28
